WARNING: for repeatability, setting FPU to use double precision
============================[ Problem Statistics ]=============================
|                                                                             |
|  Number of variables:            50                                         |
|  Number of clauses:             218                                         |
|  Parse time:                   0.00 s                                       |
|                                                                             |
============================[ Search Statistics ]==============================
| Conflicts |          ORIGINAL         |          LEARNT          | Progress |
|           |    Vars  Clauses Literals |    Limit  Clauses Lit/Cl |          |
===============================================================================
===============================================================================
restarts              : 1
conflicts             : 11             (8070 /sec)
decisions             : 24             (0.00 % random) (17608 /sec)
propagations          : 165            (121056 /sec)
conflict literals     : 47             (2.08 % deleted)
Memory used           : 20.00 MB
CPU time              : 0.001363 s

SATISFIABLE
